; ./prepared/eldarica-misc/./LIA/llreve/square_twice_safe_weaved.c-1_000.smt2
(set-logic HORN)


(declare-fun |inv_main26| ( Int Int Int ) Bool)
(declare-fun |inv_main13| ( Int Int Int Int ) Bool)
(declare-fun |inv_main3| ( Int ) Bool)
(declare-fun |inv_main22| ( Int Int Int Int Int ) Bool)
(declare-fun |inv_main8| ( Int Int Int Int ) Bool)

(assert
  (forall ( (A Int) ) 
    (=>
      (and
        true
      )
      (inv_main3 A)
    )
  )
)
(assert
  (forall ( (A Int) (B Int) (C Int) (D Int) (E Int) (F Int) (G Int) ) 
    (=>
      (and
        (inv_main22 F D G E C)
        (and (= B (+ E G)) (<= 1 C) (= A (+ (- 1) C)))
      )
      (inv_main22 F D G B A)
    )
  )
)
(assert
  (forall ( (A Int) (B Int) (C Int) (D Int) (E Int) (F Int) ) 
    (=>
      (and
        (inv_main8 D F E C)
        (and (= B (+ E F)) (<= 1 C) (= A (+ (- 1) C)))
      )
      (inv_main8 D F B A)
    )
  )
)
(assert
  (forall ( (A Int) (B Int) (C Int) (D Int) (v_4 Int) (v_5 Int) ) 
    (=>
      (and
        (inv_main8 B D C A)
        (and (not (<= 1 A)) (= 0 v_4) (= v_5 D))
      )
      (inv_main13 B D v_4 v_5)
    )
  )
)
(assert
  (forall ( (A Int) (B Int) (C Int) (D Int) (E Int) (F Int) ) 
    (=>
      (and
        (inv_main13 D F E C)
        (and (= B (+ E F)) (<= 1 C) (= A (+ (- 1) C)))
      )
      (inv_main13 D F B A)
    )
  )
)
(assert
  (forall ( (A Int) (B Int) (C Int) (D Int) (E Int) ) 
    (=>
      (and
        (inv_main22 D B E C A)
        (not (<= 1 A))
      )
      (inv_main26 D B C)
    )
  )
)
(assert
  (forall ( (A Int) (v_1 Int) (v_2 Int) (v_3 Int) ) 
    (=>
      (and
        (inv_main3 A)
        (and (= v_1 A) (= 0 v_2) (= v_3 A))
      )
      (inv_main8 A v_1 v_2 v_3)
    )
  )
)
(assert
  (forall ( (A Int) (B Int) (C Int) (D Int) (v_4 Int) (v_5 Int) (v_6 Int) ) 
    (=>
      (and
        (inv_main13 B D C A)
        (and (not (<= 1 A)) (= v_4 B) (= 0 v_5) (= v_6 B))
      )
      (inv_main22 B C v_4 v_5 v_6)
    )
  )
)
(assert
  (forall ( (A Int) (B Int) (C Int) ) 
    (=>
      (and
        (inv_main26 C B A)
        (not (= B A))
      )
      false
    )
  )
)

(check-sat)
(exit)
